c DCNF-Autarky [version 0.0.1]. 
c Copyright (c) 2018-2019 Swansea University. 
c 
c Input QBF/DQBF path: Tacchella18//5qbf-5cnf-150var-600cl.1.qdimacs
c Output SAT Translation Path: /tmp/5qbf-5cnf-150var-600cl.1.qdimacs-dcnfAutarky.dimacs
c Input Clause Count (tautology free): 600
c
c Performing E1-Autarky iteration.
c Remaining clauses count after E-Reduction: 273
c
c Performing A1-Autarky iteration.
c Running Lingeling ... 
c
c Remaining clauses count after A-Reduction: 126
c
c Performing E1-Autarky iteration.
c Remaining clauses count after E-Reduction: 108
c
c Performing A1-Autarky iteration.
c Running Lingeling ... 
c
c Remaining clauses count after A-Reduction: 105
c
c Performing E1-Autarky iteration.
c Remaining clauses count after E-Reduction: 105
c
c Performing A1-Autarky iteration.
c Running Lingeling ... 
c
c Remaining clauses count after A-Reduction: 105
c
c Input Parameter (command line, file): 
c input filename   Tacchella18//5qbf-5cnf-150var-600cl.1.qdimacs
c output filename  /tmp/5qbf-5cnf-150var-600cl.1.qdimacs-dcnfAutarky.dimacs
c autarky level    1
c conformity level 0
c encoding type    2
c no.of var        750
c no.of clauses    600
c no.of taut cls   0
c 
c Output Parameters: 
c remaining no.of clauses  105
c
c filename pn pc autarky ntaut rpa rpe rpcdiff result
c "Tacchella18//5qbf-5cnf-150var-600cl.1.qdimacs" 750 600 "E1+A1" 0 198 77 495 "RED" 
p cnf 750 105
e 1 2 3 4 5 6 7 8 9 10 11 12 13 14 15 16 17 18 19 20 21 22 23 24 25 26 27 28 29 30 31 32 33 34 35 36 37 38 39 40 41 42 43 44 45 46 47 48 49 50 51 52 53 54 55 56 57 58 59 60 61 62 63 64 65 66 67 68 69 70 71 72 73 74 75 76 77 78 79 80 81 82 83 84 85 86 87 88 89 90 91 92 93 94 95 96 97 98 99 100 101 102 103 104 105 106 107 108 109 110 111 112 113 114 115 116 117 118 119 120 121 122 123 124 125 126 127 128 129 130 131 132 133 134 135 136 137 138 139 140 141 142 143 144 145 146 147 148 149 150 0
a 151 152 153 154 155 156 157 158 159 160 161 162 163 164 165 166 167 168 169 170 171 172 173 174 175 176 177 178 179 180 181 182 183 184 185 186 187 188 189 190 191 192 193 194 195 196 197 198 199 200 201 202 203 204 205 206 207 208 209 210 211 212 213 214 215 216 217 218 219 220 221 222 223 224 225 226 227 228 229 230 231 232 233 234 235 236 237 238 239 240 241 242 243 244 245 246 247 248 249 250 251 252 253 254 255 256 257 258 259 260 261 262 263 264 265 266 267 268 269 270 271 272 273 274 275 276 277 278 279 280 281 282 283 284 285 286 287 288 289 290 291 292 293 294 295 296 297 298 299 300 0
e 301 302 303 304 305 306 307 308 309 310 311 312 313 314 315 316 317 318 319 320 321 322 323 324 325 326 327 328 329 330 331 332 333 334 335 336 337 338 339 340 341 342 343 344 345 346 347 348 349 350 351 352 353 354 355 356 357 358 359 360 361 362 363 364 365 366 367 368 369 370 371 372 373 374 375 376 377 378 379 380 381 382 383 384 385 386 387 388 389 390 391 392 393 394 395 396 397 398 399 400 401 402 403 404 405 406 407 408 409 410 411 412 413 414 415 416 417 418 419 420 421 422 423 424 425 426 427 428 429 430 431 432 433 434 435 436 437 438 439 440 441 442 443 444 445 446 447 448 449 450 0
a 451 452 453 454 455 456 457 458 459 460 461 462 463 464 465 466 467 468 469 470 471 472 473 474 475 476 477 478 479 480 481 482 483 484 485 486 487 488 489 490 491 492 493 494 495 496 497 498 499 500 501 502 503 504 505 506 507 508 509 510 511 512 513 514 515 516 517 518 519 520 521 522 523 524 525 526 527 528 529 530 531 532 533 534 535 536 537 538 539 540 541 542 543 544 545 546 547 548 549 550 551 552 553 554 555 556 557 558 559 560 561 562 563 564 565 566 567 568 569 570 571 572 573 574 575 576 577 578 579 580 581 582 583 584 585 586 587 588 589 590 591 592 593 594 595 596 597 598 599 600 0
e 601 602 603 604 605 606 607 608 609 610 611 612 613 614 615 616 617 618 619 620 621 622 623 624 625 626 627 628 629 630 631 632 633 634 635 636 637 638 639 640 641 642 643 644 645 646 647 648 649 650 651 652 653 654 655 656 657 658 659 660 661 662 663 664 665 666 667 668 669 670 671 672 673 674 675 676 677 678 679 680 681 682 683 684 685 686 687 688 689 690 691 692 693 694 695 696 697 698 699 700 701 702 703 704 705 706 707 708 709 710 711 712 713 714 715 716 717 718 719 720 721 722 723 724 725 726 727 728 729 730 731 732 733 734 735 736 737 738 739 740 741 742 743 744 745 746 747 748 749 750 0
-55 46 535 -470 475 0
87 437 487 -519 -187 0
55 -8 -589 495 -594 0
-316 -368 514 -532 206 0
-683 -55 272 -192 -246 0
673 -49 -531 -463 226 0
-384 129 550 589 -459 0
396 402 172 -241 158 0
71 -311 575 -587 176 0
725 631 -485 173 537 0
-397 -9 600 476 185 0
-97 384 -510 204 508 0
-45 -701 451 -241 -255 0
-448 701 -455 -265 -223 0
-43 404 177 190 248 0
9 642 -580 -256 469 0
-92 -87 255 -214 159 0
-683 -91 252 -600 556 0
38 316 -539 156 270 0
631 323 198 595 201 0
-404 -693 -279 -493 527 0
407 402 -237 -466 -536 0
-676 43 195 275 155 0
-93 23 237 -452 225 0
97 128 -526 -177 -247 0
8 742 -599 190 465 0
-129 414 516 585 269 0
-396 102 158 211 191 0
91 -681 468 208 494 0
-116 -323 -179 189 158 0
-673 428 576 -479 270 0
-437 -147 284 464 466 0
-303 45 -498 -228 -243 0
26 -97 558 178 -294 0
93 681 -581 -220 507 0
-414 402 -194 -241 -509 0
-416 147 470 196 -264 0
416 49 -596 -208 -511 0
-423 75 -492 511 -173 0
-45 68 592 -170 480 0
688 116 188 -463 -201 0
303 -20 -167 -468 279 0
128 -423 -212 563 -562 0
-725 745 -465 594 224 0
-738 656 -488 588 451 0
4 -626 200 515 575 0
-667 -428 -460 -293 554 0
-621 397 197 -481 530 0
-642 693 -229 287 528 0
-368 -87 515 -576 -209 0
-26 87 470 184 -193 0
-102 317 193 -153 574 0
-97 -406 243 -592 158 0
-91 676 596 285 -295 0
-45 107 -292 251 -265 0
45 379 520 490 -204 0
667 746 -212 -597 -239 0
402 -335 554 183 177 0
-647 -147 -295 474 -513 0
92 -631 -162 245 243 0
-317 -45 -298 -515 534 0
9 106 -253 -234 180 0
-38 -348 522 -278 -475 0
-742 -346 -272 -205 250 0
655 -348 236 469 -224 0
-745 418 -562 -518 -497 0
-688 631 527 -169 184 0
346 406 175 -183 -468 0
11 359 261 281 475 0
-746 -107 183 174 -258 0
-379 -676 -496 285 -525 0
683 407 -574 -234 -461 0
396 -738 -586 -226 -216 0
-102 335 511 576 152 0
402 448 236 -167 155 0
-4 -23 533 498 -587 0
129 423 475 -187 595 0
348 619 -468 -555 -486 0
-655 -376 238 581 189 0
5 -317 -241 271 -531 0
-75 -23 565 -528 256 0
368 -46 278 -530 -228 0
376 -359 -264 -250 -193 0
448 -746 240 -286 -563 0
738 -396 493 578 510 0
91 725 196 -581 473 0
-418 -738 -173 -571 551 0
-46 -68 557 248 -168 0
-5 311 -488 -161 486 0
-423 626 455 -571 584 0
691 116 -266 -290 -165 0
-346 379 -598 245 -525 0
397 -656 -484 -214 -527 0
102 -407 258 214 212 0
621 -303 173 -189 -291 0
4 -746 -193 500 199 0
-71 647 -506 -562 -588 0
418 448 -292 206 -159 0
-402 626 290 -500 -289 0
-693 -106 -485 200 559 0
-691 725 250 -249 206 0
317 -323 -543 550 508 0
97 -4 219 -465 195 0
-11 20 277 235 -591 0
-619 -128 562 298 -275 0
